JulietBench/Juliet_Based_Patch_Bench/linux/CWE-189-Numeric-Errors/CVE_2015_4167_23b133bdc452aa441fcb9b82cbf6dd05cfd342d0/solvermain_patch2.smt2
; benchmark generated from python API
(set-info :status unknown)
(declare-fun R () (_ BitVec 32))
(assert
 (let (($x13 (and (distinct (_ bv0 32) R) true)))
 (let (($x15 (= (_ bv0 32) R)))
 (let (($x22 (or $x15 $x13)))
 (not $x22)))))
(check-sat)
